(declare-fun Constructed_Argument_t () String)
(declare-fun Constructed_Argument_2_t () String)
(declare-fun Constructed_Argument_2_Array_Length () Int)
(declare-fun Constructed_Argument_3_t () String)
(assert (= Constructed_Argument_t "number"))
(assert (= Constructed_Argument_2_t "array_string"))
(assert (>= Constructed_Argument_2_Array_Length 0))
(assert (not (= Constructed_Argument_3_t "string")))
(assert (not (= Constructed_Argument_3_t "number")))
(assert (= Constructed_Argument_3_t "boolean"))
(check-sat)
